\ENCODING=ISO-8859-1
\Problem name: ilog.cplex

Maximize
 obj: 579 x(0)#0 + 678 x(1)#1 + 740 x(2)#2 + 681 x(3)#3 + 740 x(4)#4
      + 727 x(5)#5 + 644 x(6)#6 + 926 x(7)#7 + 932 x(8)#8 + 1006 x(9)#9
      + 840 x(10)#10 + 698 x(11)#11 + 566 x(12)#12 + 675 x(13)#13
      + 577 x(14)#14 + 714 x(15)#15 + 917 x(16)#16 + 196 x(17)#17
      + 714 x(18)#18 + 542 x(19)#19 + 982 x(20)#20 + 612 x(21)#21
      + 872 x(22)#22 + 1008 x(23)#23 + 1083 x(24)#24 + 681 x(25)#25
      + 638 x(26)#26 + 1051 x(27)#27 + 646 x(28)#28 + 791 x(29)#29
      + 599 x(30)#30 + 929 x(31)#31 + 806 x(32)#32 + 906 x(33)#33
      + 530 x(34)#34 + 767 x(35)#35 + 568 x(36)#36 + 660 x(37)#37
      + 528 x(38)#38 + 738 x(39)#39 + 830 x(40)#40 + 1127 x(41)#41
      + 510 x(42)#42 + 604 x(43)#43 + 670 x(44)#44 + 673 x(45)#45
      + 748 x(46)#46 + 404 x(47)#47 + 910 x(48)#48 + 595 x(49)#49
      + 902 x(50)#50 + 734 x(51)#51 + 754 x(52)#52 + 786 x(53)#53
      + 780 x(54)#54 + 316 x(55)#55 + 887 x(56)#56 + 858 x(57)#57
      + 954 x(58)#58 + 1114 x(59)#59 + 524 x(60)#60 + 856 x(61)#61
      + 840 x(62)#62 + 1002 x(63)#63 + 961 x(64)#64 + 723 x(65)#65
      + 915 x(66)#66 + 882 x(67)#67 + 879 x(68)#68 + 648 x(69)#69
      + 378 x(70)#70 + 478 x(71)#71 + 867 x(72)#72 + 487 x(73)#73
      + 640 x(74)#74 + 936 x(75)#75 + 462 x(76)#76 + 188 x(77)#77
      + 417 x(78)#78 + 478 x(79)#79 + 624 x(80)#80 + 1004 x(81)#81
      + 723 x(82)#82 + 515 x(83)#83 + 1047 x(84)#84 + 785 x(85)#85
      + 672 x(86)#86 + 679 x(87)#87 + 822 x(88)#88 + 432 x(89)#89
      + 552 x(90)#90 + 629 x(91)#91 + 523 x(92)#92 + 449 x(93)#93
      + 567 x(94)#94 + 652 x(95)#95 + 668 x(96)#96 + 516 x(97)#97
      + 584 x(98)#98 + 683 x(99)#99
Subject To
 c1: 835 x(0)#0 + 255 x(1)#1 + 797 x(2)#2 + 79 x(3)#3 + 126 x(4)#4 + 39 x(5)#5
     + 126 x(6)#6 + 346 x(7)#7 + 302 x(8)#8 + 977 x(9)#9 + 166 x(10)#10
     + 20 x(11)#11 + 489 x(12)#12 + 654 x(13)#13 + 193 x(14)#14 + 489 x(15)#15
     + 419 x(16)#16 + 248 x(17)#17 + 250 x(18)#18 + 557 x(19)#19 + 755 x(20)#20
     + 75 x(21)#21 + 363 x(22)#22 + 699 x(23)#23 + 740 x(24)#24 + 233 x(25)#25
     + 944 x(26)#26 + 13 x(27)#27 + 755 x(28)#28 + 208 x(29)#29 + 158 x(30)#30
     + 626 x(31)#31 + 765 x(32)#32 + 252 x(33)#33 + 127 x(34)#34 + 170 x(35)#35
     + 310 x(36)#36 + 955 x(37)#37 + 178 x(38)#38 + 786 x(39)#39 + 881 x(40)#40
     + 653 x(41)#41 + 829 x(42)#42 + 552 x(43)#43 + 27 x(44)#44 + 88 x(45)#45
     + 58 x(46)#46 + 143 x(47)#47 + 414 x(48)#48 + 365 x(49)#49 + 435 x(50)#50
     + 208 x(51)#51 + 630 x(52)#52 + 620 x(53)#53 + 13 x(54)#54 + 268 x(55)#55
     + 606 x(56)#56 + 576 x(57)#57 + 653 x(58)#58 + 795 x(59)#59 + 104 x(60)#60
     + 722 x(61)#61 + 373 x(62)#62 + 643 x(63)#63 + 478 x(64)#64 + 470 x(65)#65
     + 996 x(66)#66 + 802 x(67)#67 + 523 x(68)#68 + 672 x(69)#69 + 633 x(70)#70
     + 490 x(71)#71 + 848 x(72)#72 + 341 x(73)#73 + 630 x(74)#74 + 888 x(75)#75
     + 776 x(76)#76 + 113 x(77)#77 + 173 x(78)#78 + 178 x(79)#79 + 771 x(80)#80
     + 899 x(81)#81 + 587 x(82)#82 + 300 x(83)#83 + 971 x(84)#84 + 738 x(85)#85
     + 270 x(86)#86 + 241 x(87)#87 + 664 x(88)#88 + 502 x(89)#89 + 264 x(90)#90
     + 793 x(91)#91 + 428 x(92)#92 + 431 x(93)#93 + 865 x(94)#94 + 375 x(95)#95
     + 253 x(96)#96 + 270 x(97)#97 + 374 x(98)#98 + 391 x(99)#99 <= 23267
 c2: 966 x(0)#0 + 222 x(1)#1 + 987 x(2)#2 + 643 x(3)#3 + 508 x(4)#4
     + 656 x(5)#5 + 553 x(6)#6 + 578 x(7)#7 + 401 x(8)#8 + 1000 x(9)#9
     + 488 x(10)#10 + 44 x(11)#11 + 163 x(12)#12 + 227 x(13)#13 + 587 x(14)#14
     + 633 x(15)#15 + 946 x(16)#16 + 53 x(17)#17 + 350 x(18)#18 + 298 x(19)#19
     + 995 x(20)#20 + 956 x(21)#21 + 825 x(22)#22 + 630 x(23)#23 + 975 x(24)#24
     + 583 x(25)#25 + 457 x(26)#26 + 381 x(27)#27 + 155 x(28)#28 + 44 x(29)#29
     + 355 x(30)#30 + 658 x(31)#31 + 470 x(32)#32 + 284 x(33)#33 + 640 x(34)#34
     + 419 x(35)#35 + 948 x(36)#36 + 943 x(37)#37 + 246 x(38)#38 + 784 x(39)#39
     + 197 x(40)#40 + 438 x(41)#41 + 164 x(42)#42 + 109 x(43)#43 + 277 x(44)#44
     + 525 x(45)#45 + 675 x(46)#46 + 79 x(47)#47 + 353 x(48)#48 + 301 x(49)#49
     + 446 x(50)#50 + 576 x(51)#51 + 462 x(52)#52 + 450 x(53)#53 + 816 x(54)#54
     + 2 x(55)#55 + 858 x(56)#56 + 305 x(57)#57 + 647 x(58)#58 + 374 x(59)#59
     + 31 x(60)#60 + 448 x(61)#61 + 324 x(62)#62 + 394 x(63)#63 + 339 x(64)#64
     + 419 x(65)#65 + 39 x(66)#66 + 452 x(67)#67 + 345 x(68)#68 + 810 x(69)#69
     + 181 x(70)#70 + 201 x(71)#71 + 629 x(72)#72 + 227 x(73)#73 + 801 x(74)#74
     + 195 x(75)#75 + 121 x(76)#76 + 160 x(77)#77 + 220 x(78)#78 + 350 x(79)#79
     + 698 x(80)#80 + 865 x(81)#81 + 420 x(82)#82 + 665 x(83)#83 + 250 x(84)#84
     + 224 x(85)#85 + 237 x(86)#86 + 606 x(87)#87 + 660 x(88)#88 + 70 x(89)#89
     + 674 x(90)#90 + 288 x(91)#91 + 282 x(92)#92 + 97 x(93)#93 + 97 x(94)#94
     + 927 x(95)#95 + 974 x(96)#96 + 66 x(97)#97 + 74 x(98)#98 + 292 x(99)#99
     <= 22629
 c3: 354 x(0)#0 + 896 x(1)#1 + 726 x(2)#2 + 133 x(3)#3 + 560 x(4)#4
     + 814 x(5)#5 + 511 x(6)#6 + 816 x(7)#7 + 488 x(8)#8 + 301 x(9)#9
     + 180 x(10)#10 + 695 x(11)#11 + 581 x(12)#12 + 474 x(13)#13 + 185 x(14)#14
     + 615 x(15)#15 + 22 x(16)#16 + 13 x(17)#17 + 216 x(18)#18 + 48 x(19)#19
     + 62 x(20)#20 + 302 x(21)#21 + 521 x(22)#22 + 213 x(23)#23 + 323 x(24)#24
     + 176 x(25)#25 + 546 x(26)#26 + 729 x(27)#27 + 478 x(28)#28 + 314 x(29)#29
     + 839 x(30)#30 + 949 x(31)#31 + 951 x(32)#32 + 570 x(33)#33 + 769 x(34)#34
     + 420 x(35)#35 + 326 x(36)#36 + 297 x(37)#37 + 382 x(38)#38 + 170 x(39)#39
     + 185 x(40)#40 + 844 x(41)#41 + 340 x(42)#42 + 968 x(43)#43 + 841 x(44)#44
     + 807 x(45)#45 + 325 x(46)#46 + 393 x(47)#47 + 299 x(48)#48 + 354 x(49)#49
     + 776 x(50)#50 + 706 x(51)#51 + 447 x(52)#52 + x(53)#53 + 614 x(54)#54
     + 228 x(55)#55 + 890 x(56)#56 + 364 x(57)#57 + 135 x(58)#58 + 504 x(59)#59
     + 892 x(60)#60 + 595 x(61)#61 + 176 x(62)#62 + 119 x(63)#63 + 897 x(64)#64
     + 232 x(65)#65 + 397 x(66)#66 + 974 x(67)#67 + 592 x(68)#68 + 346 x(69)#69
     + 478 x(70)#70 + 451 x(71)#71 + 341 x(72)#72 + 484 x(73)#73 + 612 x(74)#74
     + 563 x(75)#75 + 182 x(76)#76 + 122 x(77)#77 + 704 x(78)#78 + 424 x(79)#79
     + 616 x(80)#80 + 742 x(81)#81 + 231 x(82)#82 + 27 x(83)#83 + 368 x(84)#84
     + 46 x(85)#85 + 887 x(86)#86 + 565 x(87)#87 + 968 x(88)#88 + 303 x(89)#89
     + 456 x(90)#90 + 333 x(91)#91 + 119 x(92)#92 + 525 x(93)#93 + 203 x(94)#94
     + 720 x(95)#95 + 503 x(96)#96 + 777 x(97)#97 + 452 x(98)#98 + 548 x(99)#99
     <= 23478
 c4: 29 x(0)#0 + 585 x(1)#1 + 71 x(2)#2 + 467 x(3)#3 + 99 x(4)#4 + 646 x(5)#5
     + 268 x(6)#6 + 479 x(7)#7 + 245 x(8)#8 + 321 x(9)#9 + 857 x(10)#10
     + 586 x(11)#11 + 758 x(12)#12 + 707 x(13)#13 + 252 x(14)#14 + 299 x(15)#15
     + 544 x(16)#16 + 270 x(17)#17 + 717 x(18)#18 + 216 x(19)#19 + 861 x(20)#20
     + 198 x(21)#21 + 461 x(22)#22 + 366 x(23)#23 + 768 x(24)#24 + 295 x(25)#25
     + 410 x(26)#26 + 825 x(27)#27 + 330 x(28)#28 + 598 x(29)#29 + 205 x(30)#30
     + 964 x(31)#31 + 870 x(32)#32 + 983 x(33)#33 + 177 x(34)#34 + 552 x(35)#35
     + 388 x(36)#36 + 18 x(37)#37 + 404 x(38)#38 + 485 x(39)#39 + 70 x(40)#40
     + 956 x(41)#41 + 66 x(42)#42 + 449 x(43)#43 + 596 x(44)#44 + 39 x(45)#45
     + 174 x(46)#46 + 347 x(47)#47 + 559 x(48)#48 + 544 x(49)#49 + 761 x(50)#50
     + 789 x(51)#51 + 424 x(52)#52 + 756 x(53)#53 + 158 x(54)#54 + 61 x(55)#55
     + 310 x(56)#56 + 50 x(57)#57 + 867 x(58)#58 + 731 x(59)#59 + 25 x(60)#60
     + 119 x(61)#61 + 751 x(62)#62 + 584 x(63)#63 + 122 x(64)#64 + 156 x(65)#65
     + 788 x(66)#66 + 427 x(67)#67 + 223 x(68)#68 + 784 x(69)#69 + 243 x(70)#70
     + 723 x(71)#71 + 864 x(72)#72 + 693 x(73)#73 + 122 x(74)#74 + 500 x(75)#75
     + 786 x(76)#76 + 258 x(77)#77 + 623 x(78)#78 + 137 x(79)#79 + 238 x(80)#80
     + 694 x(81)#81 + 345 x(82)#82 + 885 x(83)#83 + 761 x(84)#84 + 639 x(85)#85
     + 683 x(86)#86 + 945 x(87)#87 + 689 x(88)#88 + 510 x(89)#89 + 551 x(90)#90
     + 653 x(91)#91 + 253 x(92)#92 + 491 x(93)#93 + 12 x(94)#94 + 376 x(95)#95
     + 122 x(96)#96 + 64 x(97)#97 + 103 x(98)#98 + 805 x(99)#99 <= 23014
 c5: 332 x(0)#0 + 391 x(1)#1 + 835 x(2)#2 + 643 x(3)#3 + 771 x(4)#4 + 74 x(5)#5
     + 489 x(6)#6 + 219 x(7)#7 + 769 x(8)#8 + 686 x(9)#9 + 581 x(10)#10
     + 103 x(11)#11 + 732 x(12)#12 + 654 x(13)#13 + 310 x(14)#14 + 791 x(15)#15
     + 528 x(16)#16 + 80 x(17)#17 + 299 x(18)#18 + 619 x(19)#19 + 482 x(20)#20
     + 42 x(21)#21 + 950 x(22)#22 + 799 x(23)#23 + 461 x(24)#24 + 900 x(25)#25
     + 802 x(26)#26 + 842 x(27)#27 + 141 x(28)#28 + 618 x(29)#29 + 836 x(30)#30
     + 549 x(31)#31 + 68 x(32)#32 + 319 x(33)#33 + 355 x(34)#34 + 460 x(35)#35
     + 567 x(36)#36 + 291 x(37)#37 + 142 x(38)#38 + 238 x(39)#39
     + 1000 x(40)#40 + 369 x(41)#41 + 394 x(42)#42 + 588 x(43)#43
     + 434 x(44)#44 + 704 x(45)#45 + 704 x(46)#46 + 483 x(47)#47 + 471 x(48)#48
     + 39 x(49)#49 + 96 x(50)#50 + 753 x(51)#51 + 201 x(52)#52 + 664 x(53)#53
     + 528 x(54)#54 + 529 x(55)#55 + 881 x(56)#56 + 791 x(57)#57 + 995 x(58)#58
     + 863 x(59)#59 + 155 x(60)#60 + 539 x(61)#61 + 137 x(62)#62 + 979 x(63)#63
     + 495 x(64)#64 + 778 x(65)#65 + 570 x(66)#66 + 302 x(67)#67 + 965 x(68)#68
     + 186 x(69)#69 + 267 x(70)#70 + 413 x(71)#71 + 256 x(72)#72 + 387 x(73)#73
     + 532 x(74)#74 + 472 x(75)#75 + 135 x(76)#76 + 78 x(77)#77 + 319 x(78)#78
     + 393 x(79)#79 + 275 x(80)#80 + 971 x(81)#81 + 985 x(82)#82 + 325 x(83)#83
     + 989 x(84)#84 + 501 x(85)#85 + 189 x(86)#86 + 660 x(87)#87 + 834 x(88)#88
     + 111 x(89)#89 + 357 x(90)#90 + 320 x(91)#91 + 237 x(92)#92 + 499 x(93)#93
     + 904 x(94)#94 + 639 x(95)#95 + 995 x(96)#96 + 238 x(97)#97 + 74 x(98)#98
     + 297 x(99)#99 <= 25007
Bounds
 0 <= x(0)#0 <= 1
 0 <= x(1)#1 <= 1
 0 <= x(2)#2 <= 1
 0 <= x(3)#3 <= 1
 0 <= x(4)#4 <= 1
 0 <= x(5)#5 <= 1
 0 <= x(6)#6 <= 1
 0 <= x(7)#7 <= 1
 0 <= x(8)#8 <= 1
 0 <= x(9)#9 <= 1
 0 <= x(10)#10 <= 1
 0 <= x(11)#11 <= 1
 0 <= x(12)#12 <= 1
 0 <= x(13)#13 <= 1
 0 <= x(14)#14 <= 1
 0 <= x(15)#15 <= 1
 0 <= x(16)#16 <= 1
 0 <= x(17)#17 <= 1
 0 <= x(18)#18 <= 1
 0 <= x(19)#19 <= 1
 0 <= x(20)#20 <= 1
 0 <= x(21)#21 <= 1
 0 <= x(22)#22 <= 1
 0 <= x(23)#23 <= 1
 0 <= x(24)#24 <= 1
 0 <= x(25)#25 <= 1
 0 <= x(26)#26 <= 1
 0 <= x(27)#27 <= 1
 0 <= x(28)#28 <= 1
 0 <= x(29)#29 <= 1
 0 <= x(30)#30 <= 1
 0 <= x(31)#31 <= 1
 0 <= x(32)#32 <= 1
 0 <= x(33)#33 <= 1
 0 <= x(34)#34 <= 1
 0 <= x(35)#35 <= 1
 0 <= x(36)#36 <= 1
 0 <= x(37)#37 <= 1
 0 <= x(38)#38 <= 1
 0 <= x(39)#39 <= 1
 0 <= x(40)#40 <= 1
 0 <= x(41)#41 <= 1
 0 <= x(42)#42 <= 1
 0 <= x(43)#43 <= 1
 0 <= x(44)#44 <= 1
 0 <= x(45)#45 <= 1
 0 <= x(46)#46 <= 1
 0 <= x(47)#47 <= 1
 0 <= x(48)#48 <= 1
 0 <= x(49)#49 <= 1
 0 <= x(50)#50 <= 1
 0 <= x(51)#51 <= 1
 0 <= x(52)#52 <= 1
 0 <= x(53)#53 <= 1
 0 <= x(54)#54 <= 1
 0 <= x(55)#55 <= 1
 0 <= x(56)#56 <= 1
 0 <= x(57)#57 <= 1
 0 <= x(58)#58 <= 1
 0 <= x(59)#59 <= 1
 0 <= x(60)#60 <= 1
 0 <= x(61)#61 <= 1
 0 <= x(62)#62 <= 1
 0 <= x(63)#63 <= 1
 0 <= x(64)#64 <= 1
 0 <= x(65)#65 <= 1
 0 <= x(66)#66 <= 1
 0 <= x(67)#67 <= 1
 0 <= x(68)#68 <= 1
 0 <= x(69)#69 <= 1
 0 <= x(70)#70 <= 1
 0 <= x(71)#71 <= 1
 0 <= x(72)#72 <= 1
 0 <= x(73)#73 <= 1
 0 <= x(74)#74 <= 1
 0 <= x(75)#75 <= 1
 0 <= x(76)#76 <= 1
 0 <= x(77)#77 <= 1
 0 <= x(78)#78 <= 1
 0 <= x(79)#79 <= 1
 0 <= x(80)#80 <= 1
 0 <= x(81)#81 <= 1
 0 <= x(82)#82 <= 1
 0 <= x(83)#83 <= 1
 0 <= x(84)#84 <= 1
 0 <= x(85)#85 <= 1
 0 <= x(86)#86 <= 1
 0 <= x(87)#87 <= 1
 0 <= x(88)#88 <= 1
 0 <= x(89)#89 <= 1
 0 <= x(90)#90 <= 1
 0 <= x(91)#91 <= 1
 0 <= x(92)#92 <= 1
 0 <= x(93)#93 <= 1
 0 <= x(94)#94 <= 1
 0 <= x(95)#95 <= 1
 0 <= x(96)#96 <= 1
 0 <= x(97)#97 <= 1
 0 <= x(98)#98 <= 1
 0 <= x(99)#99 <= 1
Generals
 x(0)#0  x(1)#1  x(2)#2  x(3)#3  x(4)#4  x(5)#5  x(6)#6  x(7)#7  x(8)#8 
 x(9)#9  x(10)#10  x(11)#11  x(12)#12  x(13)#13  x(14)#14  x(15)#15  x(16)#16 
 x(17)#17  x(18)#18  x(19)#19  x(20)#20  x(21)#21  x(22)#22  x(23)#23 
 x(24)#24  x(25)#25  x(26)#26  x(27)#27  x(28)#28  x(29)#29  x(30)#30 
 x(31)#31  x(32)#32  x(33)#33  x(34)#34  x(35)#35  x(36)#36  x(37)#37 
 x(38)#38  x(39)#39  x(40)#40  x(41)#41  x(42)#42  x(43)#43  x(44)#44 
 x(45)#45  x(46)#46  x(47)#47  x(48)#48  x(49)#49  x(50)#50  x(51)#51 
 x(52)#52  x(53)#53  x(54)#54  x(55)#55  x(56)#56  x(57)#57  x(58)#58 
 x(59)#59  x(60)#60  x(61)#61  x(62)#62  x(63)#63  x(64)#64  x(65)#65 
 x(66)#66  x(67)#67  x(68)#68  x(69)#69  x(70)#70  x(71)#71  x(72)#72 
 x(73)#73  x(74)#74  x(75)#75  x(76)#76  x(77)#77  x(78)#78  x(79)#79 
 x(80)#80  x(81)#81  x(82)#82  x(83)#83  x(84)#84  x(85)#85  x(86)#86 
 x(87)#87  x(88)#88  x(89)#89  x(90)#90  x(91)#91  x(92)#92  x(93)#93 
 x(94)#94  x(95)#95  x(96)#96  x(97)#97  x(98)#98  x(99)#99 
End
